(set-option :produce-models true); benchmark generated from python API
(set-info :status unknown)
(declare-fun l_0_0_6 () Real)
(declare-fun l_0_0_5 () Real)
(declare-fun l_0_0_4 () Real)
(declare-fun l_0_0_12 () Real)
(declare-fun l_0_0_11 () Real)
(declare-fun l_0_0_10 () Real)
(declare-fun l_0_0_1 () Real)
(declare-fun _a_0_ () Real)
(declare-fun l_0_0_9 () Real)
(declare-fun l_0_0_8 () Real)
(declare-fun l_0_0_3 () Real)
(declare-fun l_0_0_2 () Real)
(declare-fun _a_1_ () Real)
(declare-fun l_0_0_7 () Real)
(declare-fun l_0_1_7 () Real)
(declare-fun l_0_1_13 () Real)
(declare-fun l_0_1_1 () Real)
(declare-fun l_0_1_6 () Real)
(declare-fun l_0_1_5 () Real)
(declare-fun l_0_1_4 () Real)
(declare-fun l_0_1_18 () Real)
(declare-fun l_0_1_17 () Real)
(declare-fun l_0_1_16 () Real)
(declare-fun l_0_1_12 () Real)
(declare-fun l_0_1_11 () Real)
(declare-fun l_0_1_10 () Real)
(declare-fun l_0_1_9 () Real)
(declare-fun l_0_1_8 () Real)
(declare-fun l_0_1_3 () Real)
(declare-fun l_0_1_2 () Real)
(declare-fun l_0_1_15 () Real)
(declare-fun l_0_1_14 () Real)
(declare-fun l_0_2_7 () Real)
(declare-fun l_0_2_6 () Real)
(declare-fun l_0_2_5 () Real)
(declare-fun l_0_2_4 () Real)
(declare-fun l_0_2_18 () Real)
(declare-fun l_0_2_17 () Real)
(declare-fun l_0_2_16 () Real)
(declare-fun l_0_2_12 () Real)
(declare-fun l_0_2_11 () Real)
(declare-fun l_0_2_10 () Real)
(declare-fun l_0_2_1 () Real)
(declare-fun l_0_2_3 () Real)
(declare-fun l_0_2_2 () Real)
(declare-fun l_0_2_15 () Real)
(declare-fun l_0_2_14 () Real)
(declare-fun l_0_2_9 () Real)
(declare-fun l_0_2_8 () Real)
(declare-fun l_0_2_13 () Real)
(assert
 (let ((?x61 (* l_0_0_12 l_0_0_12)))
 (let ((?x59 (* l_0_0_11 l_0_0_11)))
 (let ((?x60 (- (- (+ _a_0_ (* l_0_0_1 l_0_0_1)) (* l_0_0_10 l_0_0_10)) ?x59)))
 (let ((?x69 (- (- (- ?x60 ?x61) (* (* 1.0 l_0_0_4) l_0_0_4)) (* (* 1.0 l_0_0_5) l_0_0_5))))
 (= (- ?x69 (* (* 1.0 l_0_0_6) l_0_0_6)) 0.0))))))
(assert
 (let ((?x125 (* l_0_0_9 l_0_0_9)))
 (let ((?x123 (* l_0_0_8 l_0_0_8)))
 (let ((?x119 (- (- _a_1_ (* l_0_0_1 l_0_0_1)) (* (* 1.0 l_0_0_2) l_0_0_2))))
 (= (- (- (- ?x119 (* (* 1.0 l_0_0_3) l_0_0_3)) ?x123) ?x125) 0.0)))))
(assert
 (let ((?x149 (+ (- (* (* (- 1.0) l_0_0_1) l_0_0_1) (* l_0_0_7 l_0_0_7)) 1.0)))
 (= ?x149 0.0)))
(assert
 (let ((?x156 (* (- 2.0) l_0_0_1)))
 (let ((?x157 (* ?x156 l_0_0_2)))
 (= (- ?x157 (* (* 2.0 l_0_0_7) l_0_0_8)) 0.0))))
(assert
 (let ((?x156 (* (- 2.0) l_0_0_1)))
 (let ((?x174 (* ?x156 l_0_0_4)))
 (= (- ?x174 (* (* 2.0 l_0_0_10) l_0_0_7)) 0.0))))
(assert
 (let ((?x199 (* (* 2.0 l_0_0_3) l_0_0_5)))
 (let ((?x196 (* (* 2.0 l_0_0_2) l_0_0_4)))
 (let ((?x194 (- (* (* (- 2.0) l_0_0_10) l_0_0_8) (* (* 2.0 l_0_0_11) l_0_0_9))))
 (= (- (- ?x194 ?x196) ?x199) 0.0)))))
(assert
 (= (* (* 2.0 l_0_0_1) l_0_0_2) 0.0))
(assert
 (= (* (* 2.0 l_0_0_1) l_0_0_4) 0.0))
(assert
 (let ((?x111 (* l_0_0_6 l_0_0_6)))
 (let ((?x107 (* l_0_0_5 l_0_0_5)))
 (let ((?x103 (* l_0_0_4 l_0_0_4)))
 (let ((?x134 (* l_0_0_3 l_0_0_3)))
 (let ((?x130 (* l_0_0_2 l_0_0_2)))
 (let ((?x232 (+ ?x130 ?x134)))
 (= (- (- (- ?x232 ?x103) ?x107) ?x111) 0.0))))))))
(assert
 (let ((?x199 (* (* 2.0 l_0_0_3) l_0_0_5)))
 (let ((?x196 (* (* 2.0 l_0_0_2) l_0_0_4)))
 (= (+ ?x196 ?x199) 0.0))))
(assert
 (let ((?x111 (* l_0_0_6 l_0_0_6)))
 (= (+ (+ (* l_0_0_4 l_0_0_4) (* l_0_0_5 l_0_0_5)) ?x111) 0.0)))
(assert
 (let ((?x156 (* (- 2.0) l_0_0_1)))
 (let ((?x157 (* ?x156 l_0_0_2)))
 (= ?x157 0.0))))
(assert
 (let ((?x156 (* (- 2.0) l_0_0_1)))
 (let ((?x174 (* ?x156 l_0_0_4)))
 (= ?x174 0.0))))
(assert
 (= (- (* (- l_0_0_2) l_0_0_2) (* l_0_0_3 l_0_0_3)) 0.0))
(assert
 (let ((?x199 (* (* 2.0 l_0_0_3) l_0_0_5)))
 (= (- (* (* (- 2.0) l_0_0_2) l_0_0_4) ?x199) 0.0)))
(assert
 (>= l_0_0_1 0.0))
(assert
 (>= l_0_0_3 0.0))
(assert
 (>= l_0_0_6 0.0))
(assert
 (>= l_0_0_7 0.0))
(assert
 (>= l_0_0_9 0.0))
(assert
 (>= l_0_0_12 0.0))
(assert
 (let ((?x281 (+ (- (* (* (- 1.0) l_0_1_1) l_0_1_1) (* l_0_1_13 l_0_1_13)) (* 1.0 (* l_0_1_7 l_0_1_7)))))
 (= (+ ?x281 (/ 15.0 4.0)) 0.0)))
(assert
 (let ((?x279 (* l_0_1_7 l_0_1_7)))
 (let ((?x309 (* l_0_1_18 l_0_1_18)))
 (let ((?x307 (* l_0_1_17 l_0_1_17)))
 (let ((?x305 (* l_0_1_16 l_0_1_16)))
 (let ((?x298 (+ (* (* (- _a_0_) l_0_1_1) l_0_1_1) (* 1.0 (* l_0_1_10 l_0_1_10)))))
 (let ((?x304 (+ (+ ?x298 (* 1.0 (* l_0_1_11 l_0_1_11))) (* 1.0 (* l_0_1_12 l_0_1_12)))))
 (let ((?x313 (- (- (- (- ?x304 ?x305) ?x307) ?x309) (* (* 1.0 l_0_1_4) l_0_1_4))))
 (let ((?x319 (- (- ?x313 (* (* 1.0 l_0_1_5) l_0_1_5)) (* (* 1.0 l_0_1_6) l_0_1_6))))
 (= (+ (- ?x319 ?x279) 1.0) 0.0))))))))))
(assert
 (let ((?x279 (* l_0_1_7 l_0_1_7)))
 (let ((?x360 (* l_0_1_15 l_0_1_15)))
 (let ((?x361 (- (- (* (* (- _a_1_) l_0_1_1) l_0_1_1) (* l_0_1_14 l_0_1_14)) ?x360)))
 (let ((?x367 (- (- ?x361 (* (* 1.0 l_0_1_2) l_0_1_2)) (* (* 1.0 l_0_1_3) l_0_1_3))))
 (let ((?x374 (+ (+ (- ?x367 ?x279) (* 1.0 (* l_0_1_8 l_0_1_8))) (* 1.0 (* l_0_1_9 l_0_1_9)))))
 (= (+ ?x374 1.0) 0.0)))))))
(assert
 (let ((?x406 (* (* 2.0 l_0_1_7) l_0_1_8)))
 (let ((?x404 (- (* (* (- 2.0) l_0_1_1) l_0_1_2) (* (* 2.0 l_0_1_13) l_0_1_14))))
 (= (- (+ ?x404 ?x406) 4.0) 0.0))))
(assert
 (let ((?x406 (* (* 2.0 l_0_1_7) l_0_1_8)))
 (= (- (* (* (* (- 2.0) _a_0_) l_0_1_1) l_0_1_2) ?x406) 0.0)))
(assert
 (let ((?x444 (* 2.0 l_0_1_10)))
 (let ((?x445 (* ?x444 l_0_1_7)))
 (= (- (* (* (* (- 2.0) _a_0_) l_0_1_1) l_0_1_4) ?x445) 0.0))))
(assert
 (let ((?x372 (* l_0_1_9 l_0_1_9)))
 (let ((?x369 (* l_0_1_8 l_0_1_8)))
 (let ((?x302 (* l_0_1_12 l_0_1_12)))
 (let ((?x299 (* l_0_1_11 l_0_1_11)))
 (let ((?x296 (* l_0_1_10 l_0_1_10)))
 (let ((?x344 (* l_0_1_6 l_0_1_6)))
 (let ((?x464 (+ (+ (* l_0_1_4 l_0_1_4) (* l_0_1_5 l_0_1_5)) ?x344)))
 (let ((?x466 (- (* (- _a_0_) (+ (* l_0_1_2 l_0_1_2) (* l_0_1_3 l_0_1_3))) (* _a_1_ ?x464))))
 (= (- (- (- (- (- ?x466 ?x296) ?x299) ?x302) ?x369) ?x372) 0.0))))))))))
(assert
 (let ((?x514 (* (* 2.0 l_0_1_11) l_0_1_9)))
 (let ((?x444 (* 2.0 l_0_1_10)))
 (let ((?x511 (* ?x444 l_0_1_8)))
 (let ((?x508 (* (* 2.0 l_0_1_3) l_0_1_5)))
 (let ((?x506 (* (* 2.0 l_0_1_2) l_0_1_4)))
 (let ((?x509 (+ ?x506 ?x508)))
 (let ((?x290 (- _a_0_)))
 (= (- (- (* ?x290 ?x509) ?x511) ?x514) 0.0)))))))))
(assert
 (let ((?x302 (* l_0_1_12 l_0_1_12)))
 (let ((?x299 (* l_0_1_11 l_0_1_11)))
 (let ((?x296 (* l_0_1_10 l_0_1_10)))
 (let ((?x344 (* l_0_1_6 l_0_1_6)))
 (let ((?x464 (+ (+ (* l_0_1_4 l_0_1_4) (* l_0_1_5 l_0_1_5)) ?x344)))
 (let ((?x290 (- _a_0_)))
 (= (- (- (- (* ?x290 ?x464) ?x296) ?x299) ?x302) 0.0))))))))
(assert
 (let ((?x406 (* (* 2.0 l_0_1_7) l_0_1_8)))
 (= (- (* (* (* (- 2.0) _a_1_) l_0_1_1) l_0_1_2) ?x406) 0.0)))
(assert
 (let ((?x444 (* 2.0 l_0_1_10)))
 (let ((?x445 (* ?x444 l_0_1_7)))
 (= (- (* (* (* (- 2.0) _a_1_) l_0_1_1) l_0_1_4) ?x445) 0.0))))
(assert
 (let ((?x372 (* l_0_1_9 l_0_1_9)))
 (let ((?x369 (* l_0_1_8 l_0_1_8)))
 (let ((?x586 (- (* (- _a_1_) (+ (* l_0_1_2 l_0_1_2) (* l_0_1_3 l_0_1_3))) ?x369)))
 (= (- ?x586 ?x372) 0.0)))))
(assert
 (let ((?x514 (* (* 2.0 l_0_1_11) l_0_1_9)))
 (let ((?x444 (* 2.0 l_0_1_10)))
 (let ((?x511 (* ?x444 l_0_1_8)))
 (let ((?x508 (* (* 2.0 l_0_1_3) l_0_1_5)))
 (let ((?x506 (* (* 2.0 l_0_1_2) l_0_1_4)))
 (let ((?x509 (+ ?x506 ?x508)))
 (let ((?x350 (- _a_1_)))
 (= (- (- (* ?x350 ?x509) ?x511) ?x514) 0.0)))))))))
(assert
 (let ((?x444 (* 2.0 l_0_1_10)))
 (let ((?x445 (* ?x444 l_0_1_7)))
 (let ((?x619 (- (+ (* (* (- 2.0) l_0_1_1) l_0_1_4) ?x445) (* (* 2.0 l_0_1_13) l_0_1_16))))
 (= ?x619 0.0)))))
(assert
 (let ((?x508 (* (* 2.0 l_0_1_3) l_0_1_5)))
 (let ((?x506 (* (* 2.0 l_0_1_2) l_0_1_4)))
 (let ((?x514 (* (* 2.0 l_0_1_11) l_0_1_9)))
 (let ((?x444 (* 2.0 l_0_1_10)))
 (let ((?x511 (* ?x444 l_0_1_8)))
 (let ((?x637 (- (- (+ ?x511 ?x514) (* (* 2.0 l_0_1_14) l_0_1_16)) (* (* 2.0 l_0_1_15) l_0_1_17))))
 (= (- (- ?x637 ?x506) ?x508) 0.0))))))))
(assert
 (>= l_0_1_1 0.0))
(assert
 (>= l_0_1_3 0.0))
(assert
 (>= l_0_1_6 0.0))
(assert
 (>= l_0_1_7 0.0))
(assert
 (>= l_0_1_9 0.0))
(assert
 (>= l_0_1_12 0.0))
(assert
 (>= l_0_1_13 0.0))
(assert
 (>= l_0_1_15 0.0))
(assert
 (>= l_0_1_18 0.0))
(assert
 (let ((?x705 (* l_0_2_7 l_0_2_7)))
 (let ((?x694 (* l_0_2_18 l_0_2_18)))
 (let ((?x692 (* l_0_2_17 l_0_2_17)))
 (let ((?x690 (* l_0_2_16 l_0_2_16)))
 (let ((?x679 (* (/ 81.0 1000000.0) _a_1_)))
 (let ((?x680 (+ (+ (* (* (- _a_0_) l_0_2_1) l_0_2_1) (* (/ 81.0 100.0) _a_0_)) ?x679)))
 (let ((?x686 (- (- ?x680 (* (* 1.0 l_0_2_10) l_0_2_10)) (* (* 1.0 l_0_2_11) l_0_2_11))))
 (let ((?x695 (- (- (- (- ?x686 (* (* 1.0 l_0_2_12) l_0_2_12)) ?x690) ?x692) ?x694)))
 (let ((?x701 (- (- ?x695 (* (* 1.0 l_0_2_4) l_0_2_4)) (* (* 1.0 l_0_2_5) l_0_2_5))))
 (= (+ (- ?x701 (* (* 1.0 l_0_2_6) l_0_2_6)) ?x705) 0.0)))))))))))
(assert
 (let ((?x767 (* (* 2.0 l_0_2_3) l_0_2_5)))
 (let ((?x764 (* (* 2.0 l_0_2_2) l_0_2_4)))
 (let ((?x755 (* (* 2.0 l_0_2_11) l_0_2_9)))
 (let ((?x751 (* 2.0 l_0_2_10)))
 (let ((?x752 (* ?x751 l_0_2_8)))
 (let ((?x749 (* (/ 81.0 5000.0) _a_1_)))
 (let ((?x747 (* (- (/ 81.0 5000.0)) _a_0_)))
 (let ((?x750 (+ ?x747 ?x749)))
 (let ((?x762 (- (- (- (- ?x750 ?x752) ?x755) (* (* 2.0 l_0_2_14) l_0_2_16)) (* (* 2.0 l_0_2_15) l_0_2_17))))
 (= (- (- ?x762 ?x764) ?x767) 0.0)))))))))))
(assert
 (let ((?x705 (* l_0_2_7 l_0_2_7)))
 (let ((?x818 (* l_0_2_15 l_0_2_15)))
 (let ((?x816 (* l_0_2_14 l_0_2_14)))
 (let ((?x814 (* (/ 81.0 100.0) _a_1_)))
 (let ((?x817 (- (+ (- (* (/ 81.0 1000000.0) _a_0_) (* (* _a_1_ l_0_2_1) l_0_2_1)) ?x814) ?x816)))
 (let ((?x825 (- (- (- ?x817 ?x818) (* (* 1.0 l_0_2_2) l_0_2_2)) (* (* 1.0 l_0_2_3) l_0_2_3))))
 (let ((?x832 (- (- (+ ?x825 ?x705) (* (* 1.0 l_0_2_8) l_0_2_8)) (* (* 1.0 l_0_2_9) l_0_2_9))))
 (= ?x832 0.0)))))))))
(assert
 (let ((?x868 (- (- (* (* (- 1.0) l_0_2_1) l_0_2_1) (* l_0_2_13 l_0_2_13)) (* (* 1.0 l_0_2_7) l_0_2_7))))
 (= (+ ?x868 1.0) 0.0)))
(assert
 (let ((?x884 (* (* 2.0 l_0_2_7) l_0_2_8)))
 (= (+ (* (* (* (- 2.0) _a_0_) l_0_2_1) l_0_2_2) ?x884) 0.0)))
(assert
 (let ((?x751 (* 2.0 l_0_2_10)))
 (let ((?x894 (* ?x751 l_0_2_7)))
 (= (+ (* (* (* (- 2.0) _a_0_) l_0_2_1) l_0_2_4) ?x894) 0.0))))
(assert
 (let ((?x857 (* l_0_2_9 l_0_2_9)))
 (let ((?x853 (* l_0_2_8 l_0_2_8)))
 (let ((?x719 (* l_0_2_12 l_0_2_12)))
 (let ((?x715 (* l_0_2_11 l_0_2_11)))
 (let ((?x709 (* l_0_2_10 l_0_2_10)))
 (let ((?x740 (* l_0_2_6 l_0_2_6)))
 (let ((?x908 (+ (+ (* l_0_2_4 l_0_2_4) (* l_0_2_5 l_0_2_5)) ?x740)))
 (let ((?x910 (- (* (- _a_0_) (+ (* l_0_2_2 l_0_2_2) (* l_0_2_3 l_0_2_3))) (* _a_1_ ?x908))))
 (= (+ (+ (+ (+ (+ ?x910 ?x709) ?x715) ?x719) ?x853) ?x857) 0.0))))))))))
(assert
 (let ((?x755 (* (* 2.0 l_0_2_11) l_0_2_9)))
 (let ((?x751 (* 2.0 l_0_2_10)))
 (let ((?x752 (* ?x751 l_0_2_8)))
 (let ((?x767 (* (* 2.0 l_0_2_3) l_0_2_5)))
 (let ((?x764 (* (* 2.0 l_0_2_2) l_0_2_4)))
 (let ((?x939 (+ ?x764 ?x767)))
 (let ((?x290 (- _a_0_)))
 (= (+ (+ (* ?x290 ?x939) ?x752) ?x755) 0.0)))))))))
(assert
 (let ((?x719 (* l_0_2_12 l_0_2_12)))
 (let ((?x715 (* l_0_2_11 l_0_2_11)))
 (let ((?x709 (* l_0_2_10 l_0_2_10)))
 (let ((?x740 (* l_0_2_6 l_0_2_6)))
 (let ((?x908 (+ (+ (* l_0_2_4 l_0_2_4) (* l_0_2_5 l_0_2_5)) ?x740)))
 (let ((?x290 (- _a_0_)))
 (= (+ (+ (+ (* ?x290 ?x908) ?x709) ?x715) ?x719) 0.0))))))))
(assert
 (let ((?x884 (* (* 2.0 l_0_2_7) l_0_2_8)))
 (= (+ (* (* (* (- 2.0) _a_1_) l_0_2_1) l_0_2_2) ?x884) 0.0)))
(assert
 (let ((?x751 (* 2.0 l_0_2_10)))
 (let ((?x894 (* ?x751 l_0_2_7)))
 (= (+ (* (* (* (- 2.0) _a_1_) l_0_2_1) l_0_2_4) ?x894) 0.0))))
(assert
 (let ((?x857 (* l_0_2_9 l_0_2_9)))
 (let ((?x853 (* l_0_2_8 l_0_2_8)))
 (let ((?x984 (+ (* (- _a_1_) (+ (* l_0_2_2 l_0_2_2) (* l_0_2_3 l_0_2_3))) ?x853)))
 (= (+ ?x984 ?x857) 0.0)))))
(assert
 (let ((?x755 (* (* 2.0 l_0_2_11) l_0_2_9)))
 (let ((?x751 (* 2.0 l_0_2_10)))
 (let ((?x752 (* ?x751 l_0_2_8)))
 (let ((?x767 (* (* 2.0 l_0_2_3) l_0_2_5)))
 (let ((?x764 (* (* 2.0 l_0_2_2) l_0_2_4)))
 (let ((?x939 (+ ?x764 ?x767)))
 (let ((?x350 (- _a_1_)))
 (= (+ (+ (* ?x350 ?x939) ?x752) ?x755) 0.0)))))))))
(assert
 (let ((?x884 (* (* 2.0 l_0_2_7) l_0_2_8)))
 (let ((?x1010 (- (* (* (- 2.0) l_0_2_1) l_0_2_2) (* (* 2.0 l_0_2_13) l_0_2_14))))
 (= (- ?x1010 ?x884) 0.0))))
(assert
 (let ((?x751 (* 2.0 l_0_2_10)))
 (let ((?x894 (* ?x751 l_0_2_7)))
 (let ((?x1031 (- (- (* (* (- 2.0) l_0_2_1) l_0_2_4) ?x894) (* (* 2.0 l_0_2_13) l_0_2_16))))
 (= ?x1031 0.0)))))
(assert
 (>= l_0_2_1 0.0))
(assert
 (>= l_0_2_3 0.0))
(assert
 (>= l_0_2_6 0.0))
(assert
 (>= l_0_2_7 0.0))
(assert
 (>= l_0_2_9 0.0))
(assert
 (>= l_0_2_12 0.0))
(assert
 (>= l_0_2_13 0.0))
(assert
 (>= l_0_2_15 0.0))
(assert
 (>= l_0_2_18 0.0))
(check-sat)
(get-model)